GLPSOL--GLPK LP/MIP Solver 5.0
Parameter(s) specified in the command line:
 --lp ../modeles/20_174.lp --log 20_174.log
Reading problem data from '../modeles/20_174.lp'...
3561 rows, 7000 columns, 24420 non-zeros
3480 integer variables, all of which are binary
10587 lines were read
GLPK Integer Optimizer 5.0
3561 rows, 7000 columns, 24420 non-zeros
3480 integer variables, all of which are binary
Preprocessing...
3480 constraint coefficient(s) were reduced
3561 rows, 6980 columns, 24400 non-zeros
3480 integer variables, all of which are binary
Scaling...
 A: min|aij| =  5.285e-04  max|aij| =  4.000e+00  ratio =  7.569e+03
GM: min|aij| =  1.072e-01  max|aij| =  9.327e+00  ratio =  8.700e+01
EQ: min|aij| =  1.149e-02  max|aij| =  1.000e+00  ratio =  8.700e+01
2N: min|aij| =  7.812e-03  max|aij| =  1.738e+00  ratio =  2.224e+02
Constructing initial basis...
Size of triangular part is 3561
Solving LP relaxation...
GLPK Simplex Optimizer 5.0
3561 rows, 6980 columns, 24400 non-zeros
      0: obj =   4.000000000e+01 inf =   9.950e+01 (41)
Perturbing LP to avoid stalling [199]...
    259: obj =  -1.943104474e-01 inf =   0.000e+00 (0)
Removing LP perturbation [966]...
*   966: obj =  -4.467332123e+00 inf =   1.038e-14 (0) 1
OPTIMAL LP SOLUTION FOUND
Integer optimization begins...
Long-step dual simplex will be used
+   966: mip =     not found yet >=              -inf        (1; 0)
+   972: >>>>>  -4.467332123e+00 >=  -4.467332123e+00 < 0.1% (6; 0)
+   972: mip =  -4.467332123e+00 >=     tree is empty   0.0% (0; 11)
INTEGER OPTIMAL SOLUTION FOUND
Time used:   0.2 secs
Memory used: 10.3 Mb (10758846 bytes)
